c solution = True
p edge 402 401
e 2 1 1
e 3 2 1
e 11 2 1
e 19 2 1
e 27 2 1
e 35 2 1
e 43 2 1
e 51 2 1
e 59 2 1
e 67 2 1
e 75 2 1
e 83 2 1
e 91 2 1
e 99 2 1
e 107 2 1
e 115 2 1
e 123 2 1
e 131 2 1
e 139 2 1
e 147 2 1
e 155 2 1
e 163 2 1
e 171 2 1
e 179 2 1
e 187 2 1
e 195 2 1
e 203 2 1
e 211 2 1
e 219 2 1
e 227 2 1
e 235 2 1
e 243 2 1
e 251 2 1
e 259 2 1
e 267 2 1
e 275 2 1
e 283 2 1
e 291 2 1
e 299 2 1
e 307 2 1
e 315 2 1
e 323 2 1
e 331 2 1
e 339 2 1
e 347 2 1
e 355 2 1
e 363 2 1
e 371 2 1
e 379 2 1
e 387 2 1
e 395 2 1
e 396 395 1
e 402 395 1
e 397 396 1
e 399 396 1
e 401 396 1
e 400 399 1
e 398 397 1
e 388 387 1
e 389 388 1
e 390 389 1
e 391 390 1
e 393 390 1
e 394 390 1
e 392 391 1
e 380 379 1
e 381 380 1
e 382 381 1
e 383 382 1
e 384 383 1
e 385 384 1
e 386 384 1
e 372 371 1
e 375 371 1
e 377 371 1
e 378 371 1
e 376 375 1
e 373 372 1
e 374 372 1
e 364 363 1
e 365 364 1
e 370 364 1
e 366 365 1
e 367 366 1
e 368 367 1
e 369 368 1
e 356 355 1
e 359 355 1
e 360 355 1
e 361 355 1
e 362 355 1
e 357 356 1
e 358 357 1
e 348 347 1
e 353 347 1
e 354 347 1
e 349 348 1
e 351 348 1
e 352 351 1
e 350 349 1
e 340 339 1
e 345 339 1
e 346 345 1
e 341 340 1
e 342 341 1
e 344 341 1
e 343 342 1
e 332 331 1
e 333 332 1
e 338 332 1
e 334 333 1
e 336 333 1
e 337 336 1
e 335 334 1
e 324 323 1
e 330 323 1
e 325 324 1
e 329 324 1
e 326 325 1
e 327 326 1
e 328 326 1
e 316 315 1
e 322 315 1
e 317 316 1
e 318 317 1
e 319 318 1
e 320 319 1
e 321 319 1
e 308 307 1
e 309 308 1
e 311 308 1
e 313 308 1
e 314 313 1
e 312 311 1
e 310 309 1
e 300 299 1
e 305 299 1
e 306 299 1
e 301 300 1
e 302 301 1
e 303 302 1
e 304 302 1
e 292 291 1
e 297 291 1
e 298 297 1
e 293 292 1
e 296 292 1
e 294 293 1
e 295 293 1
e 284 283 1
e 288 283 1
e 289 288 1
e 290 288 1
e 285 284 1
e 286 285 1
e 287 286 1
e 276 275 1
e 277 276 1
e 279 276 1
e 280 276 1
e 281 276 1
e 282 276 1
e 278 277 1
e 268 267 1
e 272 267 1
e 274 267 1
e 273 272 1
e 269 268 1
e 270 268 1
e 271 268 1
e 260 259 1
e 261 260 1
e 266 260 1
e 262 261 1
e 264 261 1
e 265 264 1
e 263 262 1
e 252 251 1
e 255 251 1
e 256 251 1
e 257 251 1
e 258 251 1
e 253 252 1
e 254 252 1
e 244 243 1
e 247 243 1
e 250 243 1
e 248 247 1
e 249 248 1
e 245 244 1
e 246 245 1
e 236 235 1
e 237 236 1
e 238 237 1
e 241 237 1
e 242 237 1
e 239 238 1
e 240 239 1
e 228 227 1
e 232 227 1
e 234 227 1
e 233 232 1
e 229 228 1
e 230 229 1
e 231 229 1
e 220 219 1
e 223 219 1
e 226 219 1
e 224 223 1
e 225 224 1
e 221 220 1
e 222 221 1
e 212 211 1
e 213 212 1
e 214 213 1
e 215 214 1
e 218 214 1
e 216 215 1
e 217 216 1
e 204 203 1
e 210 203 1
e 205 204 1
e 209 204 1
e 206 205 1
e 207 206 1
e 208 207 1
e 196 195 1
e 200 195 1
e 201 200 1
e 202 200 1
e 197 196 1
e 198 197 1
e 199 197 1
e 188 187 1
e 189 188 1
e 193 188 1
e 194 193 1
e 190 189 1
e 191 190 1
e 192 190 1
e 180 179 1
e 181 180 1
e 182 181 1
e 183 182 1
e 186 182 1
e 184 183 1
e 185 184 1
e 172 171 1
e 177 171 1
e 178 171 1
e 173 172 1
e 176 172 1
e 174 173 1
e 175 173 1
e 164 163 1
e 165 164 1
e 167 164 1
e 168 164 1
e 169 164 1
e 170 164 1
e 166 165 1
e 156 155 1
e 157 156 1
e 158 157 1
e 159 158 1
e 160 158 1
e 161 158 1
e 162 158 1
e 148 147 1
e 153 147 1
e 154 153 1
e 149 148 1
e 151 148 1
e 152 148 1
e 150 149 1
e 140 139 1
e 145 139 1
e 146 139 1
e 141 140 1
e 142 141 1
e 143 141 1
e 144 141 1
e 132 131 1
e 137 131 1
e 138 137 1
e 133 132 1
e 136 132 1
e 134 133 1
e 135 134 1
e 124 123 1
e 125 124 1
e 128 124 1
e 129 128 1
e 130 128 1
e 126 125 1
e 127 126 1
e 116 115 1
e 121 115 1
e 122 121 1
e 117 116 1
e 118 116 1
e 119 116 1
e 120 116 1
e 108 107 1
e 114 107 1
e 109 108 1
e 110 109 1
e 112 109 1
e 113 109 1
e 111 110 1
e 100 99 1
e 105 99 1
e 106 105 1
e 101 100 1
e 102 101 1
e 103 101 1
e 104 101 1
e 92 91 1
e 93 92 1
e 96 92 1
e 97 96 1
e 98 97 1
e 94 93 1
e 95 94 1
e 84 83 1
e 88 83 1
e 89 88 1
e 90 88 1
e 85 84 1
e 86 85 1
e 87 86 1
e 76 75 1
e 81 75 1
e 82 81 1
e 77 76 1
e 79 76 1
e 80 76 1
e 78 77 1
e 68 67 1
e 73 67 1
e 74 67 1
e 69 68 1
e 70 69 1
e 71 70 1
e 72 70 1
e 60 59 1
e 61 60 1
e 64 60 1
e 65 64 1
e 66 65 1
e 62 61 1
e 63 62 1
e 52 51 1
e 56 51 1
e 57 56 1
e 58 57 1
e 53 52 1
e 54 53 1
e 55 53 1
e 44 43 1
e 49 43 1
e 50 43 1
e 45 44 1
e 46 44 1
e 47 44 1
e 48 44 1
e 36 35 1
e 39 35 1
e 42 35 1
e 40 39 1
e 41 39 1
e 37 36 1
e 38 36 1
e 28 27 1
e 32 27 1
e 33 32 1
e 34 33 1
e 29 28 1
e 31 28 1
e 30 29 1
e 20 19 1
e 25 19 1
e 26 19 1
e 21 20 1
e 22 21 1
e 23 21 1
e 24 21 1
e 12 11 1
e 17 11 1
e 18 17 1
e 13 12 1
e 16 12 1
e 14 13 1
e 15 14 1
e 4 3 1
e 5 4 1
e 7 4 1
e 9 4 1
e 10 4 1
e 8 7 1
e 6 5 1
